c FILE: myciel7.col
c SOURCE: Michael Trick (trick@cmu.edu)
c DESCRIPTION: Graph based on Mycielski transformation. 
c              Triangle free (clique number 2) but increasing
c              coloring number
p edge 191 2360
e 2 1
e 3 2
e 4 1
e 5 3
e 5 4
e 6 2
e 6 4
e 7 1
e 7 3
e 8 2
e 8 5
e 9 1
e 9 5
e 10 3
e 10 4
e 11 6
e 11 7
e 11 8
e 11 9
e 11 10
e 12 2
e 12 4
e 12 7
e 12 9
e 13 1
e 13 3
e 13 6
e 13 8
e 14 2
e 14 5
e 14 7
e 14 10
e 15 1
e 15 5
e 15 6
e 15 10
e 16 3
e 16 4
e 16 8
e 16 9
e 17 2
e 17 4
e 17 11
e 18 1
e 18 3
e 18 11
e 19 2
e 19 5
e 19 11
e 20 1
e 20 5
e 20 11
e 21 3
e 21 4
e 21 11
e 22 6
e 22 7
e 22 8
e 22 9
e 22 10
e 23 12
e 23 13
e 23 14
e 23 15
e 23 16
e 23 17
e 23 18
e 23 19
e 23 20
e 23 21
e 23 22
e 24 2
e 24 4
e 24 7
e 24 9
e 24 13
e 24 15
e 24 18
e 24 20
e 25 1
e 25 3
e 25 6
e 25 8
e 25 12
e 25 14
e 25 17
e 25 19
e 26 2
e 26 5
e 26 7
e 26 10
e 26 13
e 26 16
e 26 18
e 26 21
e 27 1
e 27 5
e 27 6
e 27 10
e 27 12
e 27 16
e 27 17
e 27 21
e 28 3
e 28 4
e 28 8
e 28 9
e 28 14
e 28 15
e 28 19
e 28 20
e 29 2
e 29 4
e 29 11
e 29 13
e 29 15
e 29 22
e 30 1
e 30 3
e 30 11
e 30 12
e 30 14
e 30 22
e 31 2
e 31 5
e 31 11
e 31 13
e 31 16
e 31 22
e 32 1
e 32 5
e 32 11
e 32 12
e 32 16
e 32 22
e 33 3
e 33 4
e 33 11
e 33 14
e 33 15
e 33 22
e 34 6
e 34 7
e 34 8
e 34 9
e 34 10
e 34 17
e 34 18
e 34 19
e 34 20
e 34 21
e 35 2
e 35 4
e 35 7
e 35 9
e 35 23
e 36 1
e 36 3
e 36 6
e 36 8
e 36 23
e 37 2
e 37 5
e 37 7
e 37 10
e 37 23
e 38 1
e 38 5
e 38 6
e 38 10
e 38 23
e 39 3
e 39 4
e 39 8
e 39 9
e 39 23
e 40 2
e 40 4
e 40 11
e 40 23
e 41 1
e 41 3
e 41 11
e 41 23
e 42 2
e 42 5
e 42 11
e 42 23
e 43 1
e 43 5
e 43 11
e 43 23
e 44 3
e 44 4
e 44 11
e 44 23
e 45 6
e 45 7
e 45 8
e 45 9
e 45 10
e 45 23
e 46 12
e 46 13
e 46 14
e 46 15
e 46 16
e 46 17
e 46 18
e 46 19
e 46 20
e 46 21
e 46 22
e 47 24
e 47 25
e 47 26
e 47 27
e 47 28
e 47 29
e 47 30
e 47 31
e 47 32
e 47 33
e 47 34
e 47 35
e 47 36
e 47 37
e 47 38
e 47 39
e 47 40
e 47 41
e 47 42
e 47 43
e 47 44
e 47 45
e 47 46
e 48 2
e 48 4
e 48 7
e 48 9
e 48 13
e 48 15
e 48 18
e 48 20
e 48 25
e 48 27
e 48 30
e 48 32
e 48 36
e 48 38
e 48 41
e 48 43
e 49 1
e 49 3
e 49 6
e 49 8
e 49 12
e 49 14
e 49 17
e 49 19
e 49 24
e 49 26
e 49 29
e 49 31
e 49 35
e 49 37
e 49 40
e 49 42
e 50 2
e 50 5
e 50 7
e 50 10
e 50 13
e 50 16
e 50 18
e 50 21
e 50 25
e 50 28
e 50 30
e 50 33
e 50 36
e 50 39
e 50 41
e 50 44
e 51 1
e 51 5
e 51 6
e 51 10
e 51 12
e 51 16
e 51 17
e 51 21
e 51 24
e 51 28
e 51 29
e 51 33
e 51 35
e 51 39
e 51 40
e 51 44
e 52 3
e 52 4
e 52 8
e 52 9
e 52 14
e 52 15
e 52 19
e 52 20
e 52 26
e 52 27
e 52 31
e 52 32
e 52 37
e 52 38
e 52 42
e 52 43
e 53 2
e 53 4
e 53 11
e 53 13
e 53 15
e 53 22
e 53 25
e 53 27
e 53 34
e 53 36
e 53 38
e 53 45
e 54 1
e 54 3
e 54 11
e 54 12
e 54 14
e 54 22
e 54 24
e 54 26
e 54 34
e 54 35
e 54 37
e 54 45
e 55 2
e 55 5
e 55 11
e 55 13
e 55 16
e 55 22
e 55 25
e 55 28
e 55 34
e 55 36
e 55 39
e 55 45
e 56 1
e 56 5
e 56 11
e 56 12
e 56 16
e 56 22
e 56 24
e 56 28
e 56 34
e 56 35
e 56 39
e 56 45
e 57 3
e 57 4
e 57 11
e 57 14
e 57 15
e 57 22
e 57 26
e 57 27
e 57 34
e 57 37
e 57 38
e 57 45
e 58 6
e 58 7
e 58 8
e 58 9
e 58 10
e 58 17
e 58 18
e 58 19
e 58 20
e 58 21
e 58 29
e 58 30
e 58 31
e 58 32
e 58 33
e 58 40
e 58 41
e 58 42
e 58 43
e 58 44
e 59 2
e 59 4
e 59 7
e 59 9
e 59 23
e 59 25
e 59 27
e 59 30
e 59 32
e 59 46
e 60 1
e 60 3
e 60 6
e 60 8
e 60 23
e 60 24
e 60 26
e 60 29
e 60 31
e 60 46
e 61 2
e 61 5
e 61 7
e 61 10
e 61 23
e 61 25
e 61 28
e 61 30
e 61 33
e 61 46
e 62 1
e 62 5
e 62 6
e 62 10
e 62 23
e 62 24
e 62 28
e 62 29
e 62 33
e 62 46
e 63 3
e 63 4
e 63 8
e 63 9
e 63 23
e 63 26
e 63 27
e 63 31
e 63 32
e 63 46
e 64 2
e 64 4
e 64 11
e 64 23
e 64 25
e 64 27
e 64 34
e 64 46
e 65 1
e 65 3
e 65 11
e 65 23
e 65 24
e 65 26
e 65 34
e 65 46
e 66 2
e 66 5
e 66 11
e 66 23
e 66 25
e 66 28
e 66 34
e 66 46
e 67 1
e 67 5
e 67 11
e 67 23
e 67 24
e 67 28
e 67 34
e 67 46
e 68 3
e 68 4
e 68 11
e 68 23
e 68 26
e 68 27
e 68 34
e 68 46
e 69 6
e 69 7
e 69 8
e 69 9
e 69 10
e 69 23
e 69 29
e 69 30
e 69 31
e 69 32
e 69 33
e 69 46
e 70 12
e 70 13
e 70 14
e 70 15
e 70 16
e 70 17
e 70 18
e 70 19
e 70 20
e 70 21
e 70 22
e 70 35
e 70 36
e 70 37
e 70 38
e 70 39
e 70 40
e 70 41
e 70 42
e 70 43
e 70 44
e 70 45
e 71 2
e 71 4
e 71 7
e 71 9
e 71 13
e 71 15
e 71 18
e 71 20
e 71 47
e 72 1
e 72 3
e 72 6
e 72 8
e 72 12
e 72 14
e 72 17
e 72 19
e 72 47
e 73 2
e 73 5
e 73 7
e 73 10
e 73 13
e 73 16
e 73 18
e 73 21
e 73 47
e 74 1
e 74 5
e 74 6
e 74 10
e 74 12
e 74 16
e 74 17
e 74 21
e 74 47
e 75 3
e 75 4
e 75 8
e 75 9
e 75 14
e 75 15
e 75 19
e 75 20
e 75 47
e 76 2
e 76 4
e 76 11
e 76 13
e 76 15
e 76 22
e 76 47
e 77 1
e 77 3
e 77 11
e 77 12
e 77 14
e 77 22
e 77 47
e 78 2
e 78 5
e 78 11
e 78 13
e 78 16
e 78 22
e 78 47
e 79 1
e 79 5
e 79 11
e 79 12
e 79 16
e 79 22
e 79 47
e 80 3
e 80 4
e 80 11
e 80 14
e 80 15
e 80 22
e 80 47
e 81 6
e 81 7
e 81 8
e 81 9
e 81 10
e 81 17
e 81 18
e 81 19
e 81 20
e 81 21
e 81 47
e 82 2
e 82 4
e 82 7
e 82 9
e 82 23
e 82 47
e 83 1
e 83 3
e 83 6
e 83 8
e 83 23
e 83 47
e 84 2
e 84 5
e 84 7
e 84 10
e 84 23
e 84 47
e 85 1
e 85 5
e 85 6
e 85 10
e 85 23
e 85 47
e 86 3
e 86 4
e 86 8
e 86 9
e 86 23
e 86 47
e 87 2
e 87 4
e 87 11
e 87 23
e 87 47
e 88 1
e 88 3
e 88 11
e 88 23
e 88 47
e 89 2
e 89 5
e 89 11
e 89 23
e 89 47
e 90 1
e 90 5
e 90 11
e 90 23
e 90 47
e 91 3
e 91 4
e 91 11
e 91 23
e 91 47
e 92 6
e 92 7
e 92 8
e 92 9
e 92 10
e 92 23
e 92 47
e 93 12
e 93 13
e 93 14
e 93 15
e 93 16
e 93 17
e 93 18
e 93 19
e 93 20
e 93 21
e 93 22
e 93 47
e 94 24
e 94 25
e 94 26
e 94 27
e 94 28
e 94 29
e 94 30
e 94 31
e 94 32
e 94 33
e 94 34
e 94 35
e 94 36
e 94 37
e 94 38
e 94 39
e 94 40
e 94 41
e 94 42
e 94 43
e 94 44
e 94 45
e 94 46
e 95 48
e 95 49
e 95 50
e 95 51
e 95 52
e 95 53
e 95 54
e 95 55
e 95 56
e 95 57
e 95 58
e 95 59
e 95 60
e 95 61
e 95 62
e 95 63
e 95 64
e 95 65
e 95 66
e 95 67
e 95 68
e 95 69
e 95 70
e 95 71
e 95 72
e 95 73
e 95 74
e 95 75
e 95 76
e 95 77
e 95 78
e 95 79
e 95 80
e 95 81
e 95 82
e 95 83
e 95 84
e 95 85
e 95 86
e 95 87
e 95 88
e 95 89
e 95 90
e 95 91
e 95 92
e 95 93
e 95 94
e 96 2
e 96 4
e 96 7
e 96 9
e 96 13
e 96 15
e 96 18
e 96 20
e 96 25
e 96 27
e 96 30
e 96 32
e 96 36
e 96 38
e 96 41
e 96 43
e 96 49
e 96 51
e 96 54
e 96 56
e 96 60
e 96 62
e 96 65
e 96 67
e 96 72
e 96 74
e 96 77
e 96 79
e 96 83
e 96 85
e 96 88
e 96 90
e 97 1
e 97 3
e 97 6
e 97 8
e 97 12
e 97 14
e 97 17
e 97 19
e 97 24
e 97 26
e 97 29
e 97 31
e 97 35
e 97 37
e 97 40
e 97 42
e 97 48
e 97 50
e 97 53
e 97 55
e 97 59
e 97 61
e 97 64
e 97 66
e 97 71
e 97 73
e 97 76
e 97 78
e 97 82
e 97 84
e 97 87
e 97 89
e 98 2
e 98 5
e 98 7
e 98 10
e 98 13
e 98 16
e 98 18
e 98 21
e 98 25
e 98 28
e 98 30
e 98 33
e 98 36
e 98 39
e 98 41
e 98 44
e 98 49
e 98 52
e 98 54
e 98 57
e 98 60
e 98 63
e 98 65
e 98 68
e 98 72
e 98 75
e 98 77
e 98 80
e 98 83
e 98 86
e 98 88
e 98 91
e 99 1
e 99 5
e 99 6
e 99 10
e 99 12
e 99 16
e 99 17
e 99 21
e 99 24
e 99 28
e 99 29
e 99 33
e 99 35
e 99 39
e 99 40
e 99 44
e 99 48
e 99 52
e 99 53
e 99 57
e 99 59
e 99 63
e 99 64
e 99 68
e 99 71
e 99 75
e 99 76
e 99 80
e 99 82
e 99 86
e 99 87
e 99 91
e 100 3
e 100 4
e 100 8
e 100 9
e 100 14
e 100 15
e 100 19
e 100 20
e 100 26
e 100 27
e 100 31
e 100 32
e 100 37
e 100 38
e 100 42
e 100 43
e 100 50
e 100 51
e 100 55
e 100 56
e 100 61
e 100 62
e 100 66
e 100 67
e 100 73
e 100 74
e 100 78
e 100 79
e 100 84
e 100 85
e 100 89
e 100 90
e 101 2
e 101 4
e 101 11
e 101 13
e 101 15
e 101 22
e 101 25
e 101 27
e 101 34
e 101 36
e 101 38
e 101 45
e 101 49
e 101 51
e 101 58
e 101 60
e 101 62
e 101 69
e 101 72
e 101 74
e 101 81
e 101 83
e 101 85
e 101 92
e 102 1
e 102 3
e 102 11
e 102 12
e 102 14
e 102 22
e 102 24
e 102 26
e 102 34
e 102 35
e 102 37
e 102 45
e 102 48
e 102 50
e 102 58
e 102 59
e 102 61
e 102 69
e 102 71
e 102 73
e 102 81
e 102 82
e 102 84
e 102 92
e 103 2
e 103 5
e 103 11
e 103 13
e 103 16
e 103 22
e 103 25
e 103 28
e 103 34
e 103 36
e 103 39
e 103 45
e 103 49
e 103 52
e 103 58
e 103 60
e 103 63
e 103 69
e 103 72
e 103 75
e 103 81
e 103 83
e 103 86
e 103 92
e 104 1
e 104 5
e 104 11
e 104 12
e 104 16
e 104 22
e 104 24
e 104 28
e 104 34
e 104 35
e 104 39
e 104 45
e 104 48
e 104 52
e 104 58
e 104 59
e 104 63
e 104 69
e 104 71
e 104 75
e 104 81
e 104 82
e 104 86
e 104 92
e 105 3
e 105 4
e 105 11
e 105 14
e 105 15
e 105 22
e 105 26
e 105 27
e 105 34
e 105 37
e 105 38
e 105 45
e 105 50
e 105 51
e 105 58
e 105 61
e 105 62
e 105 69
e 105 73
e 105 74
e 105 81
e 105 84
e 105 85
e 105 92
e 106 6
e 106 7
e 106 8
e 106 9
e 106 10
e 106 17
e 106 18
e 106 19
e 106 20
e 106 21
e 106 29
e 106 30
e 106 31
e 106 32
e 106 33
e 106 40
e 106 41
e 106 42
e 106 43
e 106 44
e 106 53
e 106 54
e 106 55
e 106 56
e 106 57
e 106 64
e 106 65
e 106 66
e 106 67
e 106 68
e 106 76
e 106 77
e 106 78
e 106 79
e 106 80
e 106 87
e 106 88
e 106 89
e 106 90
e 106 91
e 107 2
e 107 4
e 107 7
e 107 9
e 107 23
e 107 25
e 107 27
e 107 30
e 107 32
e 107 46
e 107 49
e 107 51
e 107 54
e 107 56
e 107 70
e 107 72
e 107 74
e 107 77
e 107 79
e 107 93
e 108 1
e 108 3
e 108 6
e 108 8
e 108 23
e 108 24
e 108 26
e 108 29
e 108 31
e 108 46
e 108 48
e 108 50
e 108 53
e 108 55
e 108 70
e 108 71
e 108 73
e 108 76
e 108 78
e 108 93
e 109 2
e 109 5
e 109 7
e 109 10
e 109 23
e 109 25
e 109 28
e 109 30
e 109 33
e 109 46
e 109 49
e 109 52
e 109 54
e 109 57
e 109 70
e 109 72
e 109 75
e 109 77
e 109 80
e 109 93
e 110 1
e 110 5
e 110 6
e 110 10
e 110 23
e 110 24
e 110 28
e 110 29
e 110 33
e 110 46
e 110 48
e 110 52
e 110 53
e 110 57
e 110 70
e 110 71
e 110 75
e 110 76
e 110 80
e 110 93
e 111 3
e 111 4
e 111 8
e 111 9
e 111 23
e 111 26
e 111 27
e 111 31
e 111 32
e 111 46
e 111 50
e 111 51
e 111 55
e 111 56
e 111 70
e 111 73
e 111 74
e 111 78
e 111 79
e 111 93
e 112 2
e 112 4
e 112 11
e 112 23
e 112 25
e 112 27
e 112 34
e 112 46
e 112 49
e 112 51
e 112 58
e 112 70
e 112 72
e 112 74
e 112 81
e 112 93
e 113 1
e 113 3
e 113 11
e 113 23
e 113 24
e 113 26
e 113 34
e 113 46
e 113 48
e 113 50
e 113 58
e 113 70
e 113 71
e 113 73
e 113 81
e 113 93
e 114 2
e 114 5
e 114 11
e 114 23
e 114 25
e 114 28
e 114 34
e 114 46
e 114 49
e 114 52
e 114 58
e 114 70
e 114 72
e 114 75
e 114 81
e 114 93
e 115 1
e 115 5
e 115 11
e 115 23
e 115 24
e 115 28
e 115 34
e 115 46
e 115 48
e 115 52
e 115 58
e 115 70
e 115 71
e 115 75
e 115 81
e 115 93
e 116 3
e 116 4
e 116 11
e 116 23
e 116 26
e 116 27
e 116 34
e 116 46
e 116 50
e 116 51
e 116 58
e 116 70
e 116 73
e 116 74
e 116 81
e 116 93
e 117 6
e 117 7
e 117 8
e 117 9
e 117 10
e 117 23
e 117 29
e 117 30
e 117 31
e 117 32
e 117 33
e 117 46
e 117 53
e 117 54
e 117 55
e 117 56
e 117 57
e 117 70
e 117 76
e 117 77
e 117 78
e 117 79
e 117 80
e 117 93
e 118 12
e 118 13
e 118 14
e 118 15
e 118 16
e 118 17
e 118 18
e 118 19
e 118 20
e 118 21
e 118 22
e 118 35
e 118 36
e 118 37
e 118 38
e 118 39
e 118 40
e 118 41
e 118 42
e 118 43
e 118 44
e 118 45
e 118 59
e 118 60
e 118 61
e 118 62
e 118 63
e 118 64
e 118 65
e 118 66
e 118 67
e 118 68
e 118 69
e 118 82
e 118 83
e 118 84
e 118 85
e 118 86
e 118 87
e 118 88
e 118 89
e 118 90
e 118 91
e 118 92
e 119 2
e 119 4
e 119 7
e 119 9
e 119 13
e 119 15
e 119 18
e 119 20
e 119 47
e 119 49
e 119 51
e 119 54
e 119 56
e 119 60
e 119 62
e 119 65
e 119 67
e 119 94
e 120 1
e 120 3
e 120 6
e 120 8
e 120 12
e 120 14
e 120 17
e 120 19
e 120 47
e 120 48
e 120 50
e 120 53
e 120 55
e 120 59
e 120 61
e 120 64
e 120 66
e 120 94
e 121 2
e 121 5
e 121 7
e 121 10
e 121 13
e 121 16
e 121 18
e 121 21
e 121 47
e 121 49
e 121 52
e 121 54
e 121 57
e 121 60
e 121 63
e 121 65
e 121 68
e 121 94
e 122 1
e 122 5
e 122 6
e 122 10
e 122 12
e 122 16
e 122 17
e 122 21
e 122 47
e 122 48
e 122 52
e 122 53
e 122 57
e 122 59
e 122 63
e 122 64
e 122 68
e 122 94
e 123 3
e 123 4
e 123 8
e 123 9
e 123 14
e 123 15
e 123 19
e 123 20
e 123 47
e 123 50
e 123 51
e 123 55
e 123 56
e 123 61
e 123 62
e 123 66
e 123 67
e 123 94
e 124 2
e 124 4
e 124 11
e 124 13
e 124 15
e 124 22
e 124 47
e 124 49
e 124 51
e 124 58
e 124 60
e 124 62
e 124 69
e 124 94
e 125 1
e 125 3
e 125 11
e 125 12
e 125 14
e 125 22
e 125 47
e 125 48
e 125 50
e 125 58
e 125 59
e 125 61
e 125 69
e 125 94
e 126 2
e 126 5
e 126 11
e 126 13
e 126 16
e 126 22
e 126 47
e 126 49
e 126 52
e 126 58
e 126 60
e 126 63
e 126 69
e 126 94
e 127 1
e 127 5
e 127 11
e 127 12
e 127 16
e 127 22
e 127 47
e 127 48
e 127 52
e 127 58
e 127 59
e 127 63
e 127 69
e 127 94
e 128 3
e 128 4
e 128 11
e 128 14
e 128 15
e 128 22
e 128 47
e 128 50
e 128 51
e 128 58
e 128 61
e 128 62
e 128 69
e 128 94
e 129 6
e 129 7
e 129 8
e 129 9
e 129 10
e 129 17
e 129 18
e 129 19
e 129 20
e 129 21
e 129 47
e 129 53
e 129 54
e 129 55
e 129 56
e 129 57
e 129 64
e 129 65
e 129 66
e 129 67
e 129 68
e 129 94
e 130 2
e 130 4
e 130 7
e 130 9
e 130 23
e 130 47
e 130 49
e 130 51
e 130 54
e 130 56
e 130 70
e 130 94
e 131 1
e 131 3
e 131 6
e 131 8
e 131 23
e 131 47
e 131 48
e 131 50
e 131 53
e 131 55
e 131 70
e 131 94
e 132 2
e 132 5
e 132 7
e 132 10
e 132 23
e 132 47
e 132 49
e 132 52
e 132 54
e 132 57
e 132 70
e 132 94
e 133 1
e 133 5
e 133 6
e 133 10
e 133 23
e 133 47
e 133 48
e 133 52
e 133 53
e 133 57
e 133 70
e 133 94
e 134 3
e 134 4
e 134 8
e 134 9
e 134 23
e 134 47
e 134 50
e 134 51
e 134 55
e 134 56
e 134 70
e 134 94
e 135 2
e 135 4
e 135 11
e 135 23
e 135 47
e 135 49
e 135 51
e 135 58
e 135 70
e 135 94
e 136 1
e 136 3
e 136 11
e 136 23
e 136 47
e 136 48
e 136 50
e 136 58
e 136 70
e 136 94
e 137 2
e 137 5
e 137 11
e 137 23
e 137 47
e 137 49
e 137 52
e 137 58
e 137 70
e 137 94
e 138 1
e 138 5
e 138 11
e 138 23
e 138 47
e 138 48
e 138 52
e 138 58
e 138 70
e 138 94
e 139 3
e 139 4
e 139 11
e 139 23
e 139 47
e 139 50
e 139 51
e 139 58
e 139 70
e 139 94
e 140 6
e 140 7
e 140 8
e 140 9
e 140 10
e 140 23
e 140 47
e 140 53
e 140 54
e 140 55
e 140 56
e 140 57
e 140 70
e 140 94
e 141 12
e 141 13
e 141 14
e 141 15
e 141 16
e 141 17
e 141 18
e 141 19
e 141 20
e 141 21
e 141 22
e 141 47
e 141 59
e 141 60
e 141 61
e 141 62
e 141 63
e 141 64
e 141 65
e 141 66
e 141 67
e 141 68
e 141 69
e 141 94
e 142 24
e 142 25
e 142 26
e 142 27
e 142 28
e 142 29
e 142 30
e 142 31
e 142 32
e 142 33
e 142 34
e 142 35
e 142 36
e 142 37
e 142 38
e 142 39
e 142 40
e 142 41
e 142 42
e 142 43
e 142 44
e 142 45
e 142 46
e 142 71
e 142 72
e 142 73
e 142 74
e 142 75
e 142 76
e 142 77
e 142 78
e 142 79
e 142 80
e 142 81
e 142 82
e 142 83
e 142 84
e 142 85
e 142 86
e 142 87
e 142 88
e 142 89
e 142 90
e 142 91
e 142 92
e 142 93
e 143 2
e 143 4
e 143 7
e 143 9
e 143 13
e 143 15
e 143 18
e 143 20
e 143 25
e 143 27
e 143 30
e 143 32
e 143 36
e 143 38
e 143 41
e 143 43
e 143 95
e 144 1
e 144 3
e 144 6
e 144 8
e 144 12
e 144 14
e 144 17
e 144 19
e 144 24
e 144 26
e 144 29
e 144 31
e 144 35
e 144 37
e 144 40
e 144 42
e 144 95
e 145 2
e 145 5
e 145 7
e 145 10
e 145 13
e 145 16
e 145 18
e 145 21
e 145 25
e 145 28
e 145 30
e 145 33
e 145 36
e 145 39
e 145 41
e 145 44
e 145 95
e 146 1
e 146 5
e 146 6
e 146 10
e 146 12
e 146 16
e 146 17
e 146 21
e 146 24
e 146 28
e 146 29
e 146 33
e 146 35
e 146 39
e 146 40
e 146 44
e 146 95
e 147 3
e 147 4
e 147 8
e 147 9
e 147 14
e 147 15
e 147 19
e 147 20
e 147 26
e 147 27
e 147 31
e 147 32
e 147 37
e 147 38
e 147 42
e 147 43
e 147 95
e 148 2
e 148 4
e 148 11
e 148 13
e 148 15
e 148 22
e 148 25
e 148 27
e 148 34
e 148 36
e 148 38
e 148 45
e 148 95
e 149 1
e 149 3
e 149 11
e 149 12
e 149 14
e 149 22
e 149 24
e 149 26
e 149 34
e 149 35
e 149 37
e 149 45
e 149 95
e 150 2
e 150 5
e 150 11
e 150 13
e 150 16
e 150 22
e 150 25
e 150 28
e 150 34
e 150 36
e 150 39
e 150 45
e 150 95
e 151 1
e 151 5
e 151 11
e 151 12
e 151 16
e 151 22
e 151 24
e 151 28
e 151 34
e 151 35
e 151 39
e 151 45
e 151 95
e 152 3
e 152 4
e 152 11
e 152 14
e 152 15
e 152 22
e 152 26
e 152 27
e 152 34
e 152 37
e 152 38
e 152 45
e 152 95
e 153 6
e 153 7
e 153 8
e 153 9
e 153 10
e 153 17
e 153 18
e 153 19
e 153 20
e 153 21
e 153 29
e 153 30
e 153 31
e 153 32
e 153 33
e 153 40
e 153 41
e 153 42
e 153 43
e 153 44
e 153 95
e 154 2
e 154 4
e 154 7
e 154 9
e 154 23
e 154 25
e 154 27
e 154 30
e 154 32
e 154 46
e 154 95
e 155 1
e 155 3
e 155 6
e 155 8
e 155 23
e 155 24
e 155 26
e 155 29
e 155 31
e 155 46
e 155 95
e 156 2
e 156 5
e 156 7
e 156 10
e 156 23
e 156 25
e 156 28
e 156 30
e 156 33
e 156 46
e 156 95
e 157 1
e 157 5
e 157 6
e 157 10
e 157 23
e 157 24
e 157 28
e 157 29
e 157 33
e 157 46
e 157 95
e 158 3
e 158 4
e 158 8
e 158 9
e 158 23
e 158 26
e 158 27
e 158 31
e 158 32
e 158 46
e 158 95
e 159 2
e 159 4
e 159 11
e 159 23
e 159 25
e 159 27
e 159 34
e 159 46
e 159 95
e 160 1
e 160 3
e 160 11
e 160 23
e 160 24
e 160 26
e 160 34
e 160 46
e 160 95
e 161 2
e 161 5
e 161 11
e 161 23
e 161 25
e 161 28
e 161 34
e 161 46
e 161 95
e 162 1
e 162 5
e 162 11
e 162 23
e 162 24
e 162 28
e 162 34
e 162 46
e 162 95
e 163 3
e 163 4
e 163 11
e 163 23
e 163 26
e 163 27
e 163 34
e 163 46
e 163 95
e 164 6
e 164 7
e 164 8
e 164 9
e 164 10
e 164 23
e 164 29
e 164 30
e 164 31
e 164 32
e 164 33
e 164 46
e 164 95
e 165 12
e 165 13
e 165 14
e 165 15
e 165 16
e 165 17
e 165 18
e 165 19
e 165 20
e 165 21
e 165 22
e 165 35
e 165 36
e 165 37
e 165 38
e 165 39
e 165 40
e 165 41
e 165 42
e 165 43
e 165 44
e 165 45
e 165 95
e 166 2
e 166 4
e 166 7
e 166 9
e 166 13
e 166 15
e 166 18
e 166 20
e 166 47
e 166 95
e 167 1
e 167 3
e 167 6
e 167 8
e 167 12
e 167 14
e 167 17
e 167 19
e 167 47
e 167 95
e 168 2
e 168 5
e 168 7
e 168 10
e 168 13
e 168 16
e 168 18
e 168 21
e 168 47
e 168 95
e 169 1
e 169 5
e 169 6
e 169 10
e 169 12
e 169 16
e 169 17
e 169 21
e 169 47
e 169 95
e 170 3
e 170 4
e 170 8
e 170 9
e 170 14
e 170 15
e 170 19
e 170 20
e 170 47
e 170 95
e 171 2
e 171 4
e 171 11
e 171 13
e 171 15
e 171 22
e 171 47
e 171 95
e 172 1
e 172 3
e 172 11
e 172 12
e 172 14
e 172 22
e 172 47
e 172 95
e 173 2
e 173 5
e 173 11
e 173 13
e 173 16
e 173 22
e 173 47
e 173 95
e 174 1
e 174 5
e 174 11
e 174 12
e 174 16
e 174 22
e 174 47
e 174 95
e 175 3
e 175 4
e 175 11
e 175 14
e 175 15
e 175 22
e 175 47
e 175 95
e 176 6
e 176 7
e 176 8
e 176 9
e 176 10
e 176 17
e 176 18
e 176 19
e 176 20
e 176 21
e 176 47
e 176 95
e 177 2
e 177 4
e 177 7
e 177 9
e 177 23
e 177 47
e 177 95
e 178 1
e 178 3
e 178 6
e 178 8
e 178 23
e 178 47
e 178 95
e 179 2
e 179 5
e 179 7
e 179 10
e 179 23
e 179 47
e 179 95
e 180 1
e 180 5
e 180 6
e 180 10
e 180 23
e 180 47
e 180 95
e 181 3
e 181 4
e 181 8
e 181 9
e 181 23
e 181 47
e 181 95
e 182 2
e 182 4
e 182 11
e 182 23
e 182 47
e 182 95
e 183 1
e 183 3
e 183 11
e 183 23
e 183 47
e 183 95
e 184 2
e 184 5
e 184 11
e 184 23
e 184 47
e 184 95
e 185 1
e 185 5
e 185 11
e 185 23
e 185 47
e 185 95
e 186 3
e 186 4
e 186 11
e 186 23
e 186 47
e 186 95
e 187 6
e 187 7
e 187 8
e 187 9
e 187 10
e 187 23
e 187 47
e 187 95
e 188 12
e 188 13
e 188 14
e 188 15
e 188 16
e 188 17
e 188 18
e 188 19
e 188 20
e 188 21
e 188 22
e 188 47
e 188 95
e 189 24
e 189 25
e 189 26
e 189 27
e 189 28
e 189 29
e 189 30
e 189 31
e 189 32
e 189 33
e 189 34
e 189 35
e 189 36
e 189 37
e 189 38
e 189 39
e 189 40
e 189 41
e 189 42
e 189 43
e 189 44
e 189 45
e 189 46
e 189 95
e 190 48
e 190 49
e 190 50
e 190 51
e 190 52
e 190 53
e 190 54
e 190 55
e 190 56
e 190 57
e 190 58
e 190 59
e 190 60
e 190 61
e 190 62
e 190 63
e 190 64
e 190 65
e 190 66
e 190 67
e 190 68
e 190 69
e 190 70
e 190 71
e 190 72
e 190 73
e 190 74
e 190 75
e 190 76
e 190 77
e 190 78
e 190 79
e 190 80
e 190 81
e 190 82
e 190 83
e 190 84
e 190 85
e 190 86
e 190 87
e 190 88
e 190 89
e 190 90
e 190 91
e 190 92
e 190 93
e 190 94
e 191 96
e 191 97
e 191 98
e 191 99
e 191 100
e 191 101
e 191 102
e 191 103
e 191 104
e 191 105
e 191 106
e 191 107
e 191 108
e 191 109
e 191 110
e 191 111
e 191 112
e 191 113
e 191 114
e 191 115
e 191 116
e 191 117
e 191 118
e 191 119
e 191 120
e 191 121
e 191 122
e 191 123
e 191 124
e 191 125
e 191 126
e 191 127
e 191 128
e 191 129
e 191 130
e 191 131
e 191 132
e 191 133
e 191 134
e 191 135
e 191 136
e 191 137
e 191 138
e 191 139
e 191 140
e 191 141
e 191 142
e 191 143
e 191 144
e 191 145
e 191 146
e 191 147
e 191 148
e 191 149
e 191 150
e 191 151
e 191 152
e 191 153
e 191 154
e 191 155
e 191 156
e 191 157
e 191 158
e 191 159
e 191 160
e 191 161
e 191 162
e 191 163
e 191 164
e 191 165
e 191 166
e 191 167
e 191 168
e 191 169
e 191 170
e 191 171
e 191 172
e 191 173
e 191 174
e 191 175
e 191 176
e 191 177
e 191 178
e 191 179
e 191 180
e 191 181
e 191 182
e 191 183
e 191 184
e 191 185
e 191 186
e 191 187
e 191 188
e 191 189
e 191 190
